NAME : xqf131
COMMENT : Bonn VLSI data set with 131 points
COMMENT : Uni Bonn, Research Institute for Discrete Math
COMMENT : Contributed by Andre Rohe
TYPE : TSP
DIMENSION: 4
EDGE_WEIGHT_TYPE : EUC_2D
NODE_COORD_SECTION
1 0 1
2 0 2
3 1 0
4 1 2
EOF